min: y1 +y2;

3x11 + 7x21 + 20x31 + 4x41 -30y1 <= 0;
3x12 + 7x22 + 20x32 + 4x42 -30y2 <= 0;

19x11 + 8x21 + 5x31 + x41 - 20y1 <= 0;
19x12 + 8x22 + 5x32 + x42 - 20y2 <= 0;

x11 + x12= 1;
x21 + x22= 1;
x31 + x32= 1;
x41 + x42= 1;

bin x11,x21,x31,x41, x12,x22,x32,x42,y1,y2;